1 100
0 40.0 50.0 0.0 0.0 0 240
2 25.0 85.0 10.0 20.0 0 191
3 22.0 75.0 10.0 30.0 0 199
4 22.0 85.0 10.0 10.0 0 190
5 20.0 80.0 10.0 40.0 141 171
6 20.0 85.0 10.0 20.0 0 189
7 18.0 75.0 10.0 20.0 95 125
8 15.0 75.0 10.0 20.0 0 194
9 15.0 80.0 10.0 10.0 91 121
10 10.0 35.0 10.0 20.0 91 121
11 10.0 40.0 10.0 30.0 119 149
12 8.0 40.0 10.0 40.0 59 89
13 8.0 45.0 10.0 20.0 0 197
14 5.0 35.0 10.0 10.0 142 172
15 5.0 45.0 10.0 10.0 35 65
16 2.0 40.0 10.0 20.0 58 88
17 0.0 40.0 10.0 20.0 72 102
18 0.0 45.0 10.0 20.0 149 179
19 44.0 5.0 10.0 20.0 87 117
20 42.0 10.0 10.0 40.0 72 102
21 42.0 15.0 10.0 10.0 122 152
22 40.0 5.0 10.0 10.0 0 185
23 40.0 15.0 10.0 40.0 92 122
24 38.0 5.0 10.0 30.0 65 95
25 38.0 15.0 10.0 10.0 148 178
26 35.0 5.0 10.0 20.0 154 184
27 95.0 30.0 10.0 30.0 0 171
28 95.0 35.0 10.0 20.0 62 92
29 92.0 30.0 10.0 10.0 62 92
30 90.0 35.0 10.0 10.0 67 97
31 88.0 30.0 10.0 10.0 74 104
32 88.0 35.0 10.0 20.0 0 179
33 87.0 30.0 10.0 10.0 131 161
34 85.0 25.0 10.0 10.0 51 81
35 85.0 35.0 10.0 30.0 0 182
36 67.0 85.0 10.0 20.0 139 169
37 65.0 85.0 10.0 40.0 43 73
38 65.0 82.0 10.0 10.0 0 189
39 62.0 80.0 10.0 30.0 75 105
40 60.0 80.0 10.0 10.0 37 67
41 60.0 85.0 10.0 30.0 85 115
42 58.0 75.0 10.0 20.0 92 122
43 55.0 80.0 10.0 10.0 33 63
44 55.0 85.0 10.0 20.0 128 158
45 55.0 82.0 10.0 10.0 64 94
46 20.0 82.0 10.0 10.0 37 67
47 18.0 80.0 10.0 10.0 113 143
48 2.0 45.0 10.0 10.0 45 75
49 42.0 5.0 10.0 10.0 0 184
50 42.0 12.0 10.0 10.0 104 134
51 72.0 35.0 10.0 30.0 0 194
52 55.0 20.0 10.0 19.0 83 113
53 25.0 30.0 10.0 3.0 0 205
54 20.0 50.0 10.0 5.0 91 121
55 55.0 60.0 10.0 16.0 139 169
56 30.0 60.0 10.0 16.0 140 170
57 50.0 35.0 10.0 19.0 130 160
58 30.0 25.0 10.0 23.0 96 126
59 15.0 10.0 10.0 20.0 152 182
60 10.0 20.0 10.0 19.0 0 187
61 15.0 60.0 10.0 17.0 155 185
62 45.0 65.0 10.0 9.0 66 96
63 65.0 35.0 10.0 3.0 52 82
64 65.0 20.0 10.0 6.0 39 69
65 45.0 30.0 10.0 17.0 53 83
66 35.0 40.0 10.0 16.0 11 41
67 41.0 37.0 10.0 16.0 133 163
68 64.0 42.0 10.0 9.0 70 100
69 40.0 60.0 10.0 21.0 144 174
70 31.0 52.0 10.0 27.0 41 71
71 35.0 69.0 10.0 23.0 180 210
72 65.0 55.0 10.0 14.0 65 95
73 63.0 65.0 10.0 8.0 0 202
74 2.0 60.0 10.0 5.0 77 107
75 20.0 20.0 10.0 8.0 141 171
76 5.0 5.0 10.0 16.0 0 172
77 60.0 12.0 10.0 31.0 75 105
78 23.0 3.0 10.0 7.0 150 180
79 8.0 56.0 10.0 27.0 90 120
80 6.0 68.0 10.0 30.0 89 119
81 47.0 47.0 10.0 13.0 192 222
82 49.0 58.0 10.0 10.0 86 116
83 27.0 43.0 10.0 9.0 0 215
84 37.0 31.0 10.0 14.0 0 210
85 57.0 29.0 10.0 18.0 96 126
86 63.0 23.0 10.0 2.0 0 194
87 21.0 24.0 10.0 28.0 87 117
88 12.0 24.0 10.0 13.0 90 120
89 24.0 58.0 10.0 19.0 67 97
90 67.0 5.0 10.0 25.0 144 174
91 37.0 47.0 10.0 6.0 86 116
92 49.0 42.0 10.0 13.0 0 217
93 53.0 43.0 10.0 14.0 14 44
94 61.0 52.0 10.0 3.0 178 208
95 57.0 48.0 10.0 23.0 0 212
96 56.0 37.0 10.0 6.0 0 209
97 55.0 54.0 10.0 26.0 0 214
98 4.0 18.0 10.0 35.0 120 150
99 26.0 52.0 10.0 9.0 0 215
100 26.0 35.0 10.0 15.0 77 107
101 31.0 67.0 10.0 3.0 180 210